(declare-fun x () Int)
(declare-fun y () Int)
(declare-fun p (Int Int Int Int Int Int) Bool)
(declare-fun f (Int Int) Int)
(assert (forall ((x Int)) (and (p x y x y x y) (forall ((y Int)) (p (f x y) x x y (f x y) x)))))
(assert (p x y x y x y))
